% seed = 0

mint = 41;
% maxt = 260;

nActs = 92;
dur = [0,3,2,4,4,5,3,5,2,1,4,3,2,2,3,3,2,6,2,1,1,3,2,3,3,3,6,4,1,3,3,3,3,3,2,2,6,3,3,2,5,5,3,3,6,2,2,5,2,5,3,2,5,3,2,1,2,2,2,3,1,6,4,2,5,1,3,4,1,1,2,3,2,3,3,4,2,6,2,3,2,3,2,1,3,1,3,3,3,1,1,0];

nSkills = 12;
sreq = [| 0,0,0,0,0,0,0,0,0,0,0,0,
	| 0,0,0,0,0,0,0,0,1,2,0,0,
	| 0,0,0,0,1,0,0,0,0,0,0,0,
	| 0,0,0,0,1,0,0,0,0,1,0,0,
	| 0,0,0,0,0,0,0,0,0,0,1,0,
	| 0,0,0,0,0,0,0,0,1,0,0,0,
	| 0,0,0,0,0,1,0,0,0,1,1,0,
	| 0,0,0,0,0,0,1,0,0,0,0,0,
	| 0,0,0,1,0,2,0,0,0,0,0,0,
	| 0,0,0,0,0,1,0,0,0,0,0,0,
	| 0,0,0,0,1,0,0,0,0,1,1,0,
	| 0,0,0,0,0,0,0,0,0,1,0,0,
	| 0,0,0,0,0,0,0,0,0,1,0,0,
	| 0,0,0,1,0,1,0,0,0,0,1,0,
	| 0,0,0,1,0,0,0,1,1,0,0,0,
	| 0,0,0,0,0,0,0,0,0,1,1,0,
	| 0,0,0,0,0,1,1,0,0,0,0,0,
	| 0,0,0,1,0,0,0,0,1,0,1,0,
	| 0,0,0,0,0,2,0,0,0,1,0,0,
	| 0,0,1,0,0,2,0,0,0,0,0,0,
	| 0,1,0,0,1,0,0,0,0,0,1,0,
	| 0,0,0,0,0,1,0,0,0,0,0,0,
	| 0,0,0,0,0,1,0,0,0,0,1,0,
	| 0,0,0,0,0,0,0,0,0,0,1,0,
	| 0,0,0,0,0,0,0,0,1,0,1,0,
	| 0,0,1,0,0,0,0,0,0,0,0,0,
	| 0,0,1,0,1,0,0,0,0,0,1,0,
	| 0,0,0,0,0,1,0,0,0,0,0,0,
	| 0,0,0,0,0,0,0,0,1,0,0,0,
	| 0,0,0,0,2,0,0,0,0,0,0,0,
	| 0,0,0,0,0,0,0,0,0,0,1,0,
	| 0,0,0,1,0,1,0,1,0,0,0,0,
	| 0,0,0,0,0,1,0,1,0,1,0,0,
	| 0,0,0,0,0,1,0,0,0,0,0,0,
	| 0,0,0,0,0,1,1,1,0,0,0,0,
	| 1,0,0,0,0,1,0,0,1,0,0,0,
	| 1,0,0,0,0,0,0,1,0,0,0,0,
	| 0,0,0,0,0,0,0,1,0,0,0,0,
	| 0,0,0,0,0,0,0,0,1,0,0,0,
	| 0,0,0,1,0,0,0,0,1,0,0,0,
	| 0,0,1,0,2,0,0,0,0,0,0,0,
	| 0,0,0,0,0,1,0,0,2,0,0,0,
	| 0,0,0,1,0,1,0,0,0,0,0,0,
	| 0,0,0,0,0,1,0,1,0,0,0,0,
	| 0,0,0,0,1,0,0,0,0,2,0,0,
	| 0,0,0,0,1,0,0,0,1,0,0,0,
	| 0,0,0,0,0,0,0,0,0,0,1,0,
	| 0,0,0,0,0,0,0,0,0,1,0,0,
	| 0,0,0,0,0,1,0,0,1,0,0,0,
	| 0,0,0,0,0,0,0,1,0,0,0,0,
	| 0,0,0,0,0,1,1,0,0,1,0,0,
	| 0,0,0,0,0,1,0,1,0,0,0,0,
	| 0,0,0,0,0,0,0,0,1,0,0,0,
	| 0,1,0,0,0,1,0,0,0,0,1,0,
	| 0,0,0,1,0,0,0,0,0,0,0,0,
	| 0,0,0,0,0,0,1,0,0,1,0,0,
	| 0,0,0,0,0,0,0,0,1,0,0,0,
	| 0,0,0,0,0,1,0,0,0,0,0,0,
	| 0,0,0,0,1,1,0,1,0,0,0,0,
	| 0,0,0,0,0,2,0,1,0,0,0,0,
	| 0,0,0,0,1,0,0,0,0,0,0,0,
	| 0,0,1,0,0,1,0,0,0,0,1,0,
	| 0,0,0,0,1,0,0,0,1,0,0,0,
	| 0,0,1,0,0,1,0,0,1,0,0,0,
	| 0,0,0,1,0,0,0,0,0,0,0,0,
	| 0,0,0,1,0,0,0,1,0,0,0,0,
	| 0,0,0,1,0,0,0,0,1,0,0,0,
	| 0,0,0,0,0,1,0,0,1,0,0,0,
	| 0,0,0,0,1,0,0,1,0,0,0,0,
	| 0,1,0,0,0,0,0,0,0,0,0,0,
	| 0,0,0,0,0,0,0,1,0,0,0,0,
	| 1,0,0,0,0,0,0,1,0,0,1,0,
	| 0,0,0,0,1,0,0,0,1,0,1,0,
	| 0,0,0,0,0,2,0,0,0,0,1,0,
	| 0,0,0,0,0,1,0,1,0,0,0,0,
	| 1,0,0,0,0,0,0,0,0,2,0,0,
	| 0,0,0,0,1,1,0,0,0,0,1,0,
	| 0,0,0,0,2,1,0,0,0,0,0,0,
	| 0,0,0,0,0,2,0,1,0,0,0,0,
	| 0,0,0,0,1,0,0,0,0,0,0,0,
	| 0,0,0,0,1,0,0,1,0,0,1,0,
	| 0,0,0,0,1,0,0,0,2,0,0,1,
	| 0,0,0,0,0,0,0,0,0,0,2,0,
	| 0,0,0,0,0,0,0,0,0,0,1,0,
	| 1,0,0,0,0,1,0,0,0,1,0,0,
	| 0,0,0,0,0,1,0,0,1,0,1,0,
	| 1,0,0,0,0,2,0,0,0,0,0,0,
	| 0,0,0,0,0,0,0,1,0,0,0,0,
	| 0,0,0,0,0,0,0,1,2,0,0,0,
	| 0,0,0,0,0,0,0,0,0,1,0,0,
	| 0,0,0,0,2,1,0,0,0,0,0,0,
	| 0,0,0,0,0,0,0,0,0,0,0,0, |];

% SumOfsreq = 188;

nResources = 10;
mastery = [| false,false,false,true,true,true,false,false,false,false,false,false,
	| false,false,false,false,false,false,false,false,true,true,true,true,
	| false,false,false,false,true,true,true,true,true,false,false,false,
	| false,false,false,false,false,true,false,false,false,false,false,false,
	| false,false,false,false,false,false,false,false,false,true,true,true,
	| false,false,false,false,false,false,false,true,true,false,false,false,
	| true,true,true,false,false,false,false,false,false,false,false,false,
	| false,false,false,true,true,true,false,false,true,false,false,false,
	| false,false,true,false,true,true,false,false,false,true,true,true,
	| false,false,false,false,false,false,false,false,false,true,true,true, |];

nPrecs = 138;
pred = [1,1,1,2,2,3,3,3,4,4,4,5,5,5,6,6,6,7,8,8,8,9,9,9,10,11,12,12,12,13,14,14,14,15,15,15,16,16,16,17,18,18,18,19,19,20,21,22,23,23,24,24,25,26,27,28,28,29,29,30,30,31,32,32,33,33,34,34,35,35,36,37,38,38,39,39,40,41,42,43,44,45,45,46,47,48,49,50,50,51,52,53,54,55,56,56,57,57,58,58,59,60,61,61,62,63,64,65,66,67,68,69,69,70,70,71,72,73,73,74,75,75,76,77,78,79,80,81,82,83,84,85,86,87,88,89,90,91];
succ = [2,3,4,12,32,11,36,7,28,5,38,21,13,6,44,37,30,8,9,10,54,87,14,15,88,22,17,25,16,18,33,19,35,34,31,74,43,20,46,62,26,53,56,50,23,27,47,78,40,24,69,29,58,48,60,61,71,41,68,42,67,59,84,72,49,39,77,45,60,79,84,67,74,62,60,52,75,73,64,51,73,61,55,70,58,77,52,59,55,63,70,57,66,56,79,72,58,66,69,64,82,72,65,80,73,83,76,86,70,68,81,82,85,89,80,86,86,91,78,85,81,76,91,79,88,81,84,82,91,90,90,88,90,89,89,92,92,92];

nUnrels = 3123;
unpred = [2,2,2,2,2,2,2,2,2,2,2,2,2,2,2,2,2,2,2,2,2,2,2,2,2,2,2,2,2,2,2,2,2,2,2,2,2,2,2,2,2,2,2,2,2,2,2,2,2,2,2,2,2,2,2,2,2,2,3,3,3,3,3,3,3,3,3,3,3,3,3,3,3,3,3,3,3,3,3,3,3,3,3,3,3,3,3,3,3,3,3,3,4,4,4,4,4,4,4,4,4,4,4,4,4,4,4,4,4,4,4,4,4,4,4,4,4,4,4,4,4,4,4,4,4,4,4,4,4,4,4,4,4,4,5,5,5,5,5,5,5,5,5,5,5,5,5,5,5,5,5,5,5,5,5,5,5,5,5,5,5,5,5,5,5,5,5,5,5,5,5,5,5,5,5,5,5,5,5,5,5,5,5,6,6,6,6,6,6,6,6,6,6,6,6,6,6,6,6,6,6,6,6,6,6,6,6,6,6,6,6,6,6,6,6,6,6,6,6,6,6,6,6,6,6,6,6,6,6,6,6,6,6,6,6,6,6,6,6,6,6,6,6,6,6,6,6,6,6,6,6,6,6,7,7,7,7,7,7,7,7,7,7,7,7,7,7,7,7,7,7,7,7,7,7,7,7,7,7,7,7,7,7,7,7,7,7,8,8,8,8,8,8,8,8,8,8,8,8,8,8,8,8,8,8,8,8,8,8,8,8,8,8,8,8,8,8,8,8,8,8,9,9,9,9,9,9,9,9,9,9,9,9,9,9,9,9,9,9,9,9,9,9,9,9,9,9,9,9,9,9,9,9,9,9,9,9,9,10,10,10,10,10,10,10,10,10,10,10,10,10,10,10,10,10,10,10,10,10,10,10,10,10,10,10,10,10,10,10,10,10,10,10,10,10,10,10,10,10,10,10,10,10,10,10,10,10,10,10,10,10,10,10,10,10,10,10,10,10,10,10,10,10,10,10,10,10,10,10,10,10,10,10,10,10,10,10,11,11,11,11,11,11,11,11,11,11,11,11,11,11,11,11,11,11,11,11,11,11,11,11,11,11,11,11,11,11,11,11,11,11,11,11,11,11,11,11,11,11,11,11,11,11,11,11,11,11,11,11,11,11,11,11,11,11,11,11,11,11,11,11,11,11,11,11,11,11,11,11,11,11,11,11,12,12,12,12,12,12,12,12,12,12,12,12,12,12,12,12,12,12,12,12,12,12,12,12,12,12,12,12,12,12,12,12,12,12,12,12,12,12,12,12,12,12,12,12,12,12,12,12,12,12,13,13,13,13,13,13,13,13,13,13,13,13,13,13,13,13,13,13,13,13,13,13,13,13,13,13,13,13,13,13,13,13,13,13,13,13,13,13,13,13,13,13,13,13,13,13,13,13,13,13,13,13,13,14,14,14,14,14,14,14,14,14,14,14,14,14,14,14,14,14,14,14,14,14,14,14,14,14,14,14,14,14,14,14,14,14,14,14,14,14,14,14,14,14,14,15,15,15,15,15,15,15,15,15,15,15,15,15,15,15,15,15,15,15,15,15,15,15,15,15,15,15,15,15,15,15,15,15,15,15,15,15,15,15,15,15,15,15,15,15,15,15,15,15,15,15,15,15,15,16,16,16,16,16,16,16,16,16,16,16,16,16,16,16,16,16,16,16,16,16,16,16,16,16,16,16,16,16,16,16,16,16,16,16,16,16,16,16,16,16,16,16,16,16,16,16,16,16,16,16,16,16,16,16,16,16,16,16,16,17,17,17,17,17,17,17,17,17,17,17,17,17,17,17,17,17,17,17,17,17,17,17,17,17,17,17,17,17,17,17,17,17,17,17,17,17,17,17,17,17,17,17,17,17,17,17,17,17,17,17,17,17,17,17,17,17,17,17,17,17,17,17,17,17,17,17,17,18,18,18,18,18,18,18,18,18,18,18,18,18,18,18,18,18,18,18,18,18,18,18,18,18,18,18,18,18,18,18,18,18,18,18,18,18,18,18,18,18,18,18,18,18,18,18,18,18,19,19,19,19,19,19,19,19,19,19,19,19,19,19,19,19,19,19,19,19,19,19,19,19,19,19,19,19,19,19,19,19,19,19,19,19,19,19,19,19,19,19,19,19,19,19,19,20,20,20,20,20,20,20,20,20,20,20,20,20,20,20,20,20,20,20,20,20,20,20,20,20,20,20,20,20,20,20,20,20,20,20,20,20,20,20,20,20,20,20,20,20,20,20,20,20,20,20,20,20,20,20,20,20,20,20,20,20,20,20,20,20,20,21,21,21,21,21,21,21,21,21,21,21,21,21,21,21,21,21,21,21,21,21,21,21,21,21,21,21,21,21,21,21,21,21,21,21,21,21,21,21,21,21,21,21,21,21,21,21,21,21,21,21,21,21,21,21,21,21,21,21,21,22,22,22,22,22,22,22,22,22,22,22,22,22,22,22,22,22,22,22,22,22,22,22,22,22,22,22,22,22,22,22,22,22,22,22,22,22,22,22,22,22,22,22,22,22,22,22,22,22,22,22,22,22,22,22,22,22,22,22,22,22,22,22,22,22,22,23,23,23,23,23,23,23,23,23,23,23,23,23,23,23,23,23,23,23,23,23,23,23,23,23,23,23,23,23,23,23,23,23,23,23,23,23,23,23,23,23,23,23,23,23,23,23,23,23,23,23,23,24,24,24,24,24,24,24,24,24,24,24,24,24,24,24,24,24,24,24,24,24,24,24,24,24,24,24,24,24,24,24,24,24,24,24,24,24,24,24,24,24,24,24,24,24,24,24,24,24,24,24,24,24,24,24,25,25,25,25,25,25,25,25,25,25,25,25,25,25,25,25,25,25,25,25,25,25,25,25,25,25,25,25,25,25,25,25,25,25,25,25,25,25,25,25,25,25,25,25,25,25,25,25,25,25,25,25,25,25,25,25,25,26,26,26,26,26,26,26,26,26,26,26,26,26,26,26,26,26,26,26,26,26,26,26,26,26,26,26,26,26,26,26,26,26,26,26,26,26,26,26,26,26,26,26,26,26,26,26,26,26,26,26,26,26,26,26,26,26,26,26,27,27,27,27,27,27,27,27,27,27,27,27,27,27,27,27,27,27,27,27,27,27,27,27,27,27,27,27,27,27,27,27,27,27,27,27,27,27,27,27,27,27,27,27,27,27,27,27,27,27,27,27,27,27,27,27,27,27,27,27,28,28,28,28,28,28,28,28,28,28,28,28,28,28,28,28,28,28,28,28,28,28,28,28,28,28,28,28,28,28,28,28,28,28,28,28,28,28,28,28,28,28,28,28,28,28,28,28,28,28,28,28,28,28,28,28,29,29,29,29,29,29,29,29,29,29,29,29,29,29,29,29,29,29,29,29,29,29,29,29,29,29,29,29,29,29,29,29,29,29,29,29,29,29,29,29,29,29,29,29,29,29,29,29,29,29,29,29,29,30,30,30,30,30,30,30,30,30,30,30,30,30,30,30,30,30,30,30,30,30,30,30,30,30,30,30,30,30,30,30,30,30,30,30,30,30,30,30,30,30,30,30,30,30,30,30,30,30,30,30,30,30,31,31,31,31,31,31,31,31,31,31,31,31,31,31,31,31,31,31,31,31,31,31,31,31,31,31,31,31,31,31,31,31,31,31,31,31,31,31,31,31,31,31,31,31,31,31,31,31,31,31,31,31,31,31,31,31,31,32,32,32,32,32,32,32,32,32,32,32,32,32,32,32,32,32,32,32,32,32,32,32,32,32,32,32,32,32,32,32,32,32,32,32,32,32,32,32,32,32,32,32,32,32,32,32,32,32,32,32,32,32,32,32,33,33,33,33,33,33,33,33,33,33,33,33,33,33,33,33,33,33,33,33,33,33,33,33,33,33,33,33,33,33,33,33,33,33,33,33,33,33,33,33,33,33,33,33,33,33,33,34,34,34,34,34,34,34,34,34,34,34,34,34,34,34,34,34,34,34,34,34,34,34,34,34,34,34,34,34,34,34,34,34,34,34,34,34,34,34,34,34,34,35,35,35,35,35,35,35,35,35,35,35,35,35,35,35,35,35,35,35,35,35,35,35,35,35,35,35,35,35,35,35,35,35,35,35,35,35,35,35,35,35,35,35,35,35,35,35,35,36,36,36,36,36,36,36,36,36,36,36,36,36,36,36,36,36,36,36,36,36,36,36,36,36,36,36,36,36,36,36,36,36,36,36,36,36,36,36,36,36,36,36,36,36,36,36,36,36,36,36,36,36,37,37,37,37,37,37,37,37,37,37,37,37,37,37,37,37,37,37,37,37,37,37,37,37,37,37,37,37,37,37,37,37,37,37,37,37,37,37,37,37,37,37,37,37,37,37,37,37,37,38,38,38,38,38,38,38,38,38,38,38,38,38,38,38,38,38,38,38,38,38,38,38,38,38,38,38,38,38,38,38,38,38,38,38,38,38,38,38,38,38,38,38,38,38,39,39,39,39,39,39,39,39,39,39,39,39,39,39,39,39,39,39,39,39,39,39,39,39,39,39,39,39,39,39,39,39,39,39,39,39,39,39,39,39,39,39,39,40,40,40,40,40,40,40,40,40,40,40,40,40,40,40,40,40,40,40,40,40,40,40,40,40,40,40,40,40,40,40,40,40,40,40,40,40,40,40,40,40,40,40,40,40,40,41,41,41,41,41,41,41,41,41,41,41,41,41,41,41,41,41,41,41,41,41,41,41,41,41,41,41,41,41,41,41,41,41,41,41,41,41,41,41,41,41,41,41,41,41,42,42,42,42,42,42,42,42,42,42,42,42,42,42,42,42,42,42,42,42,42,42,42,42,42,42,42,42,42,42,42,42,42,42,42,42,42,42,42,42,42,42,42,42,42,42,43,43,43,43,43,43,43,43,43,43,43,43,43,43,43,43,43,43,43,43,43,43,43,43,43,43,43,43,43,43,43,43,43,43,43,43,43,43,43,43,43,43,43,43,44,44,44,44,44,44,44,44,44,44,44,44,44,44,44,44,44,44,44,44,44,44,44,44,44,44,44,44,44,44,44,44,44,44,44,44,44,44,44,44,44,44,45,45,45,45,45,45,45,45,45,45,45,45,45,45,45,45,45,45,45,45,45,45,45,45,45,45,45,45,45,45,45,45,45,46,46,46,46,46,46,46,46,46,46,46,46,46,46,46,46,46,46,46,46,46,46,46,46,46,46,46,46,46,46,46,46,46,46,46,46,46,46,46,46,47,47,47,47,47,47,47,47,47,47,47,47,47,47,47,47,47,47,47,47,47,47,47,47,47,47,47,47,47,47,47,47,47,47,47,48,48,48,48,48,48,48,48,48,48,48,48,48,48,48,48,48,48,48,48,48,48,48,48,48,48,48,48,48,48,48,48,48,48,48,48,48,48,49,49,49,49,49,49,49,49,49,49,49,49,49,49,49,49,49,49,49,49,49,49,49,49,49,49,49,49,49,49,49,49,49,49,49,49,50,50,50,50,50,50,50,50,50,50,50,50,50,50,50,50,50,50,50,50,50,50,50,50,50,50,50,50,50,50,50,51,51,51,51,51,51,51,51,51,51,51,51,51,51,51,51,51,51,51,51,51,51,51,51,51,51,51,51,51,51,51,51,51,51,51,51,51,52,52,52,52,52,52,52,52,52,52,52,52,52,52,52,52,52,52,52,52,52,52,52,52,52,52,52,52,52,52,52,52,52,52,53,53,53,53,53,53,53,53,53,53,53,53,53,53,53,53,53,53,53,53,53,53,53,54,54,54,54,54,54,54,54,54,54,54,54,54,54,54,54,54,54,54,54,54,54,54,54,54,54,54,54,54,54,54,55,55,55,55,55,55,55,55,55,55,55,55,55,55,55,55,55,55,55,55,55,55,55,55,55,55,55,55,56,56,56,56,56,56,56,56,56,56,56,56,56,56,56,56,56,56,56,56,56,56,56,56,56,56,56,56,57,57,57,57,57,57,57,57,57,57,57,57,57,57,57,57,57,57,57,57,58,58,58,58,58,58,58,58,58,58,58,58,58,58,58,58,58,58,58,58,58,58,58,58,58,59,59,59,59,59,59,59,59,59,59,59,59,59,59,59,59,59,59,59,59,59,59,59,59,59,59,59,59,59,59,60,60,60,60,60,60,60,60,60,60,60,60,60,60,60,60,60,60,60,60,60,60,60,60,60,60,60,60,61,61,61,61,61,61,61,61,61,61,61,61,61,61,61,61,61,61,61,61,61,61,61,61,61,62,62,62,62,62,62,62,62,62,62,62,62,62,62,62,62,62,62,62,62,62,62,62,62,63,63,63,63,63,63,63,63,63,63,63,63,63,63,63,63,63,63,63,63,63,63,63,63,63,63,64,64,64,64,64,64,64,64,64,64,64,64,64,64,64,64,64,64,64,64,64,64,64,64,64,65,65,65,65,65,65,65,65,65,65,65,65,65,65,65,65,65,65,65,65,65,65,65,65,66,66,66,66,66,66,66,66,66,66,66,66,66,66,66,66,66,66,66,66,67,67,67,67,67,67,67,67,67,67,67,67,67,67,67,67,67,67,67,67,68,68,68,68,68,68,68,68,68,68,68,68,68,68,68,68,68,68,68,68,69,69,69,69,69,69,69,69,69,69,69,69,69,69,69,69,69,70,70,70,70,70,70,70,70,70,70,70,70,70,70,70,70,70,71,71,71,71,71,71,71,71,71,71,71,71,71,71,71,71,71,71,72,72,72,72,72,72,72,72,72,72,72,72,72,72,72,72,72,73,73,73,73,73,73,73,73,73,73,73,73,73,73,74,74,74,74,74,74,74,74,74,74,74,74,74,74,75,75,75,75,75,75,75,75,75,75,75,75,76,76,76,76,76,76,76,76,76,76,76,76,76,76,77,77,77,77,77,77,77,77,77,77,78,78,78,78,78,78,78,78,78,78,78,79,79,79,79,79,79,79,79,79,80,80,80,80,80,80,80,80,80,81,81,81,81,81,81,81,81,82,82,82,82,82,82,82,82,83,83,83,83,83,83,83,84,84,84,84,84,84,85,85,85,85,86,86,86,86,87,87,87,88,88,89,89,90];
unsucc = [3,4,5,6,7,8,9,10,11,13,14,15,18,19,21,22,23,24,26,28,29,30,31,33,34,35,36,37,38,39,40,41,42,44,45,47,48,49,50,52,53,54,55,56,57,59,61,65,66,67,68,71,74,75,77,79,81,87,4,5,6,12,13,16,17,18,20,21,25,26,27,28,30,32,37,38,42,43,44,46,47,48,51,53,57,58,62,63,64,67,71,83,7,8,9,10,11,12,14,15,16,17,19,20,22,23,24,25,27,29,31,32,33,34,35,36,39,40,41,43,45,46,49,50,51,52,54,55,59,60,63,75,83,87,7,8,9,10,11,12,14,15,16,17,19,20,22,23,24,25,27,28,29,31,32,33,34,35,36,38,39,40,41,43,45,46,49,50,51,52,54,55,59,60,61,62,63,65,71,74,75,83,87,7,8,9,10,11,12,13,14,15,16,17,18,19,20,21,22,23,24,25,26,27,28,29,31,32,33,34,35,36,38,39,40,41,43,45,46,47,48,49,50,51,52,53,54,55,56,57,58,59,60,61,62,63,65,66,69,70,71,72,74,75,77,79,80,83,84,85,86,87,90,11,12,13,16,17,18,20,21,22,25,26,27,28,30,32,36,37,38,42,43,44,46,47,48,51,53,57,58,62,63,64,67,71,83,11,12,13,16,17,18,20,21,22,25,26,27,28,30,32,36,37,38,42,43,44,46,47,48,51,53,57,58,62,63,64,67,71,83,10,11,12,13,16,17,18,20,21,22,25,26,27,28,30,32,36,37,38,42,43,44,46,47,48,51,53,54,57,58,62,63,64,66,67,71,83,11,12,13,14,15,16,17,18,19,20,21,22,23,24,25,26,27,28,29,30,31,32,33,34,35,36,37,38,39,40,41,42,43,44,45,46,47,48,49,50,51,52,53,54,55,56,57,58,59,60,61,62,63,64,65,66,67,68,69,70,71,72,73,74,75,76,77,78,79,80,81,82,83,84,85,86,87,90,91,12,13,14,15,16,17,18,19,20,21,23,24,25,26,27,28,29,30,31,32,33,34,35,36,37,38,39,40,41,42,43,44,45,46,47,48,49,50,51,52,53,54,55,56,57,58,59,60,61,62,63,64,65,66,67,68,69,70,71,72,73,74,75,76,77,79,80,81,82,83,84,85,86,87,90,91,13,14,15,18,19,21,22,23,24,26,28,29,30,31,32,33,34,35,36,37,38,39,40,41,42,44,45,47,48,49,50,52,53,54,55,56,57,59,61,65,66,67,68,71,74,75,77,79,81,87,14,15,16,17,19,20,21,22,23,24,25,27,28,29,30,31,32,33,34,35,36,37,38,39,40,41,42,43,44,45,46,47,49,50,51,52,54,55,59,60,61,62,63,65,67,68,71,73,74,75,78,83,87,15,16,17,18,20,21,22,25,26,27,28,30,31,32,34,36,37,38,42,43,44,45,46,47,48,51,53,54,57,58,61,62,63,64,65,66,67,71,74,77,83,87,16,17,18,19,20,21,22,23,24,25,26,27,28,29,30,32,33,35,36,37,38,39,40,41,42,43,44,46,47,48,49,50,51,52,53,54,57,58,60,62,63,64,66,67,68,69,70,71,73,75,76,78,83,87,17,18,19,21,22,23,24,25,26,28,29,30,31,32,33,34,35,36,37,38,39,40,41,42,44,45,47,48,49,50,52,53,54,55,56,57,58,59,61,62,64,65,66,67,68,69,71,73,74,75,76,77,78,79,81,82,85,87,88,91,18,19,20,21,22,23,24,25,26,27,28,29,30,31,32,33,34,35,36,37,38,39,40,41,42,43,44,45,46,47,48,49,50,51,52,53,54,55,56,57,58,59,60,61,63,64,65,66,67,68,69,70,71,72,74,75,76,77,79,80,81,82,83,84,85,86,87,90,19,20,21,22,23,24,25,27,28,29,30,31,32,33,34,35,36,37,38,39,40,41,42,43,44,45,46,47,49,50,51,52,54,55,59,60,61,62,63,65,67,68,71,73,74,75,78,83,87,20,21,22,25,26,27,28,30,31,32,33,34,35,36,37,38,39,42,43,44,45,46,47,48,49,51,52,53,54,57,58,60,61,62,63,64,65,66,67,70,71,74,77,80,83,84,87,21,22,23,24,25,26,28,29,30,31,32,33,34,35,36,37,38,39,40,41,42,43,44,45,46,47,48,49,50,51,52,53,54,55,56,57,58,59,61,62,63,64,65,66,67,68,69,70,71,73,74,75,76,77,78,79,80,81,82,83,84,85,87,88,89,91,22,23,24,25,26,27,28,29,30,31,32,33,34,35,36,37,38,39,40,41,42,43,44,45,46,48,49,50,51,52,53,54,55,56,57,59,60,61,62,63,65,66,67,68,70,71,72,73,74,75,77,78,79,80,81,83,84,86,87,90,23,24,25,26,27,28,29,30,31,32,33,34,35,36,37,38,39,40,41,42,43,44,45,46,47,48,49,50,51,52,53,54,55,56,57,58,59,60,61,62,63,64,65,66,67,68,69,70,71,72,73,74,75,76,77,79,80,81,82,83,84,85,86,87,90,91,25,26,27,28,30,31,32,33,34,35,36,37,38,39,42,43,44,45,46,47,48,49,50,51,52,53,54,55,56,57,58,59,60,61,62,63,64,65,66,67,70,71,72,74,77,79,80,83,84,86,87,90,25,26,27,28,30,31,32,33,34,35,36,37,38,39,40,42,43,44,45,46,47,48,49,50,51,52,53,54,55,56,57,58,59,60,61,62,63,64,65,66,67,70,71,72,74,75,76,77,79,80,83,84,86,87,90,26,27,28,29,30,31,32,33,34,35,36,37,38,39,40,41,42,43,44,45,46,47,48,49,50,51,52,53,54,55,56,57,59,60,61,62,63,65,66,67,68,70,71,72,73,74,75,77,78,79,80,81,83,84,86,87,90,27,28,29,30,31,32,33,34,35,36,37,38,39,40,41,42,43,44,45,46,47,49,50,51,52,53,54,55,56,57,58,59,60,61,62,63,64,65,66,67,68,69,70,71,72,73,74,75,76,78,80,83,84,85,86,87,88,89,90,28,29,30,31,32,33,34,35,36,37,38,39,40,41,42,43,44,45,46,47,48,49,50,51,52,53,54,55,56,57,58,59,61,62,63,64,65,66,67,68,69,70,71,73,74,75,76,77,78,79,80,81,82,83,84,85,87,88,89,91,29,30,31,32,33,34,35,36,37,38,39,40,41,42,43,44,45,46,47,48,49,50,51,52,53,54,55,56,57,58,59,60,62,63,64,66,67,68,69,70,72,73,74,75,76,77,78,79,81,82,83,85,87,88,89,91,30,31,32,33,34,35,36,37,38,39,40,42,43,44,45,46,47,48,49,50,51,52,53,54,55,56,57,58,59,60,61,62,63,64,65,66,67,69,70,71,72,74,75,76,77,79,80,83,84,85,86,87,90,31,32,33,34,35,36,37,38,39,40,41,43,44,45,46,47,48,49,50,51,52,53,54,55,56,57,58,59,60,61,62,63,65,66,69,70,71,72,73,74,75,77,78,79,80,83,84,85,86,87,88,89,90,32,33,34,35,36,37,38,39,40,41,42,43,44,45,46,47,48,49,50,51,52,53,54,55,56,57,58,60,61,62,63,64,65,66,67,68,69,70,71,72,73,74,75,76,77,78,79,80,81,83,84,85,86,87,88,89,90,33,34,35,36,37,38,39,40,41,42,43,44,45,46,47,48,49,50,51,52,53,54,55,56,57,58,59,60,61,62,63,64,65,66,67,68,69,70,71,73,74,75,76,77,78,79,80,81,82,83,85,87,88,89,91,34,35,36,37,38,40,41,42,43,44,45,46,47,48,50,51,53,54,55,56,57,58,59,61,62,63,64,65,66,67,68,69,71,73,74,75,76,77,78,79,81,82,83,85,87,88,91,35,36,37,38,39,40,41,42,43,44,46,47,48,49,50,51,52,53,54,57,58,59,60,62,63,64,66,67,68,69,70,71,73,74,75,76,78,83,85,87,88,89,36,37,38,39,40,41,42,43,44,45,46,47,48,49,50,51,52,53,54,55,56,57,58,59,61,62,63,64,65,66,67,68,69,70,71,73,74,75,76,77,78,80,83,84,85,87,88,89,37,38,39,40,41,42,43,44,45,46,47,48,49,50,51,52,53,54,55,56,57,58,59,60,61,62,63,64,65,66,67,68,69,70,71,72,73,74,75,76,77,78,79,80,81,82,83,85,86,87,88,89,91,38,39,40,41,42,43,44,45,46,47,48,49,50,51,52,53,54,55,56,57,58,59,60,61,62,63,64,65,66,69,70,71,72,73,74,75,76,77,78,79,80,83,84,85,86,87,88,89,90,39,40,41,42,43,44,45,46,47,48,49,50,51,52,53,54,55,56,57,58,59,60,61,63,64,65,66,67,68,69,70,71,72,75,76,77,79,80,81,82,83,84,86,87,90,40,41,42,43,44,45,46,47,48,49,50,51,53,54,55,56,57,58,59,61,62,63,64,65,66,67,68,69,71,73,74,75,76,77,78,79,81,82,83,85,87,88,91,41,42,43,44,45,46,47,48,49,50,51,52,53,54,55,56,57,58,59,60,61,62,63,64,65,66,67,68,69,70,71,72,73,74,77,78,79,80,83,84,85,86,87,88,89,90,42,43,44,45,46,47,48,49,50,51,52,53,54,55,56,57,58,59,60,61,62,63,64,65,66,67,68,69,70,71,72,74,75,76,77,79,80,81,82,83,84,85,86,87,90,43,44,45,46,47,48,49,50,51,52,53,54,55,56,57,58,59,60,61,62,63,65,66,67,68,69,70,71,72,73,74,75,77,78,79,80,81,82,83,84,85,86,87,88,89,90,44,45,46,47,48,49,50,52,53,54,55,56,57,58,59,60,61,62,64,65,66,67,68,69,70,71,72,73,74,75,76,77,78,79,80,81,82,84,85,86,87,88,89,91,45,46,47,48,49,50,51,52,53,54,55,56,57,58,59,60,61,62,63,64,65,66,67,68,69,70,71,72,74,75,76,77,79,80,81,82,83,84,85,86,87,90,46,47,48,49,50,51,52,53,54,57,58,59,60,62,63,64,66,67,68,69,70,71,73,74,75,76,77,78,83,85,87,88,89,47,48,49,50,51,52,53,54,55,56,57,58,59,60,61,62,63,64,65,66,67,68,69,71,72,73,74,75,76,77,78,79,81,82,83,85,86,87,88,91,48,49,50,51,52,53,54,55,56,57,59,60,61,62,63,65,66,67,68,70,71,72,73,74,75,77,78,79,80,81,83,84,86,87,90,49,50,51,52,53,54,55,56,57,58,59,60,61,62,63,64,65,66,67,68,69,70,71,72,73,74,75,76,78,80,83,84,85,86,87,88,89,90,50,51,53,54,55,56,57,58,59,60,61,62,63,64,65,66,67,68,69,71,72,73,74,75,76,77,78,79,81,82,83,85,86,87,88,91,51,52,53,54,57,58,60,61,62,63,64,65,66,67,68,69,70,71,73,74,75,76,77,78,80,83,84,85,87,88,89,52,53,54,55,56,57,58,59,60,61,62,64,65,66,67,68,69,70,71,72,73,74,75,76,77,78,79,80,81,82,84,85,86,87,88,89,91,53,54,55,56,57,58,59,60,61,62,63,64,65,66,67,68,69,71,72,73,74,75,76,77,78,79,81,82,83,85,86,87,88,91,54,55,56,59,60,61,62,63,65,67,68,71,72,73,74,75,77,78,79,81,83,86,87,55,56,57,58,59,60,61,62,63,64,65,67,68,69,71,72,73,74,75,76,77,78,79,81,82,83,85,86,87,88,91,57,58,59,60,61,62,63,64,65,66,67,68,69,70,71,73,74,75,76,77,78,80,83,84,85,87,88,89,57,58,59,60,61,62,63,64,65,66,67,68,69,70,71,73,74,75,76,77,78,80,83,84,85,87,88,89,59,60,61,62,63,65,67,68,71,72,73,74,75,77,78,79,81,83,86,87,59,60,61,62,63,65,66,67,68,70,71,72,73,74,75,77,78,79,80,81,83,84,86,87,90,60,61,62,63,64,65,66,67,68,69,70,71,72,73,74,75,76,77,78,79,80,81,83,84,85,86,87,88,89,90,61,62,63,64,65,66,67,68,69,70,71,73,74,75,76,77,78,79,80,81,82,83,84,85,87,88,89,91,62,63,64,66,67,68,69,70,71,72,73,74,75,76,77,78,79,81,82,83,85,87,88,89,91,63,64,65,66,67,68,69,70,71,72,74,75,76,77,79,80,81,82,83,84,85,86,87,90,64,65,66,67,68,69,70,71,72,73,74,75,76,77,78,79,80,81,82,84,85,86,87,88,89,91,65,66,67,68,69,70,71,72,73,74,75,77,78,79,80,81,82,83,84,85,86,87,88,89,90,66,67,68,69,70,71,72,73,74,75,76,77,78,79,80,81,82,83,84,85,87,88,89,91,67,68,69,71,72,73,74,75,76,77,78,79,81,82,83,85,86,87,88,91,69,70,71,72,73,74,75,76,77,78,79,80,83,84,85,86,87,88,89,90,69,70,71,72,73,74,75,76,77,78,79,80,83,84,85,86,87,88,89,90,70,71,72,73,74,75,76,77,78,79,80,81,83,84,86,87,90,71,72,73,74,75,76,77,78,79,81,82,83,85,86,87,88,91,72,73,74,75,76,77,78,79,80,81,82,83,84,85,87,88,89,91,73,74,75,76,77,78,79,80,81,82,83,84,85,87,88,89,91,74,75,76,77,79,80,81,82,83,84,85,86,87,90,75,76,77,78,79,80,81,82,83,84,86,87,90,91,77,78,79,80,83,84,85,86,87,88,89,90,77,78,79,80,81,82,83,84,85,86,87,88,89,90,78,80,83,84,85,86,87,88,89,90,79,80,81,82,83,84,85,86,87,90,91,80,83,84,85,86,87,88,89,90,81,82,83,85,86,87,88,89,91,83,84,85,86,87,88,89,90,83,84,85,86,87,88,89,90,84,85,86,87,88,89,91,85,86,87,88,89,91,86,87,90,91,87,88,89,91,88,90,91,90,91,90,91,91];

USEFUL_RES = [{},
	{2,3,5,6,8,9,10},
	{1,3,8,9},
	{1,2,3,5,8,9,10},
	{2,5,9,10},
	{2,3,6,8},
	{1,2,3,4,5,8,9,10},
	{3},
	{1,3,4,8,9},
	{1,3,4,8,9},
	{1,2,3,5,8,9,10},
	{2,5,9,10},
	{2,5,9,10},
	{1,2,3,4,5,8,9,10},
	{1,2,3,6,8},
	{2,5,9,10},
	{1,3,4,8,9},
	{1,2,3,5,6,8,9,10},
	{1,2,3,4,5,8,9,10},
	{1,3,4,7,8,9},
	{1,2,3,5,7,8,9,10},
	{1,3,4,8,9},
	{1,2,3,4,5,8,9,10},
	{2,5,9,10},
	{2,3,5,6,8,9,10},
	{7,9},
	{1,2,3,5,7,8,9,10},
	{1,3,4,8,9},
	{2,3,6,8},
	{1,3,8,9},
	{2,5,9,10},
	{1,3,4,6,8,9},
	{1,2,3,4,5,6,8,9,10},
	{1,3,4,8,9},
	{1,3,4,6,8,9},
	{1,2,3,4,6,7,8,9},
	{3,6,7},
	{3,6},
	{2,3,6,8},
	{1,2,3,6,8},
	{1,3,7,8,9},
	{1,2,3,4,6,8,9},
	{1,3,4,8,9},
	{1,3,4,6,8,9},
	{1,2,3,5,8,9,10},
	{1,2,3,6,8,9},
	{2,5,9,10},
	{2,5,9,10},
	{1,2,3,4,6,8,9},
	{3,6},
	{1,2,3,4,5,8,9,10},
	{1,3,4,6,8,9},
	{2,3,6,8},
	{1,2,3,4,5,7,8,9,10},
	{1,8},
	{2,3,5,9,10},
	{2,3,6,8},
	{1,3,4,8,9},
	{1,3,4,6,8,9},
	{1,3,4,6,8,9},
	{1,3,8,9},
	{1,2,3,4,5,7,8,9,10},
	{1,2,3,6,8,9},
	{1,2,3,4,6,7,8,9},
	{1,8},
	{1,3,6,8},
	{1,2,3,6,8},
	{1,2,3,4,6,8,9},
	{1,3,6,8,9},
	{7},
	{3,6},
	{2,3,5,6,7,9,10},
	{1,2,3,5,6,8,9,10},
	{1,2,3,4,5,8,9,10},
	{1,3,4,6,8,9},
	{2,5,7,9,10},
	{1,2,3,4,5,8,9,10},
	{1,3,4,8,9},
	{1,3,4,6,8,9},
	{1,3,8,9},
	{1,2,3,5,6,8,9,10},
	{1,2,3,5,6,8,9,10},
	{2,5,9,10},
	{2,5,9,10},
	{1,2,3,4,5,7,8,9,10},
	{1,2,3,4,5,6,8,9,10},
	{1,3,4,7,8,9},
	{3,6},
	{2,3,6,8},
	{2,5,9,10},
	{1,3,4,8,9},
	{}];

POTENTIAL_ACT = [{3,4,7,9,10,11,14,15,17,18,19,20,21,22,23,27,28,30,32,33,34,35,36,40,41,42,43,44,45,46,49,51,52,54,55,58,59,60,61,62,63,64,65,66,67,68,69,73,74,75,77,78,79,80,81,82,85,86,87,91},
	{2,4,5,6,7,11,12,13,14,15,16,18,19,21,23,24,25,27,29,31,33,36,39,40,42,45,46,47,48,49,51,53,54,56,57,62,63,64,67,68,72,73,74,76,77,81,82,83,84,85,86,89,90},
	{2,3,4,6,7,8,9,10,11,14,15,17,18,19,20,21,22,23,25,27,28,29,30,32,33,34,35,36,37,38,39,40,41,42,43,44,45,46,49,50,51,52,53,54,56,57,58,59,60,61,62,63,64,66,67,68,69,71,72,73,74,75,77,78,79,80,81,82,85,86,87,88,89,91},
	{7,9,10,14,17,19,20,22,23,28,32,33,34,35,36,42,43,44,49,51,52,54,58,59,60,62,64,68,74,75,77,78,79,85,86,87,91},
	{2,4,5,7,11,12,13,14,16,18,19,21,23,24,25,27,31,33,45,47,48,51,54,56,62,72,73,74,76,77,81,82,83,84,85,86,90},
	{2,6,15,18,25,29,32,33,35,36,37,38,39,40,42,44,46,49,50,52,53,57,59,60,63,64,66,67,68,69,71,72,73,75,79,81,82,86,88,89},
	{20,21,26,27,36,37,41,54,62,64,70,72,76,85,87},
	{2,3,4,6,7,9,10,11,14,15,17,18,19,20,21,22,23,25,27,28,29,30,32,33,34,35,36,39,40,41,42,43,44,45,46,49,51,52,53,54,55,57,58,59,60,61,62,63,64,65,66,67,68,69,73,74,75,77,78,79,80,81,82,85,86,87,89,91},
	{2,3,4,5,7,9,10,11,12,13,14,16,17,18,19,20,21,22,23,24,25,26,27,28,30,31,32,33,34,35,36,41,42,43,44,45,46,47,48,49,51,52,54,56,58,59,60,61,62,63,64,68,69,72,73,74,75,76,77,78,79,80,81,82,83,84,85,86,87,90,91},
	{2,4,5,7,11,12,13,14,16,18,19,21,23,24,25,27,31,33,45,47,48,51,54,56,62,72,73,74,76,77,81,82,83,84,85,86,90}];
